59 2 46 43 1 3 37 49 23 11 55 6 1 7 32 29 45 50 31 54 1 19 20 60 8 14 9 1 26 17 21 4 47 41 12 22 5 1 35 24 25 40 16 56 36 1 39 30 58 38 18 28 27 1 42 34 53 48 15 1 51 44 57 13 33 52 10 1 59 2 46 43 1  (922)
Cost 1642.48

